
Gurobi 11.0.1 (win64) logging started Wed May 15 12:31:36 2024

Set parameter LogFile to value "output/solver_log28.txt"
Gurobi Optimizer version 11.0.1 build v11.0.1rc0 (win64 - Windows 11.0 (22631.2))

CPU model: 11th Gen Intel(R) Core(TM) i7-1165G7 @ 2.80GHz, instruction set [SSE2|AVX|AVX2|AVX512]
Thread count: 4 physical cores, 8 logical processors, using up to 8 threads

Optimize a model with 2400 rows, 527 columns and 44583 nonzeros
Model fingerprint: 0x48ae421a
Variable types: 248 continuous, 279 integer (279 binary)
Coefficient statistics:
  Matrix range     [4e-01, 1e+05]
  Objective range  [1e+00, 1e+02]
  Bounds range     [1e+00, 1e+00]
  RHS range        [1e-02, 1e+05]

User MIP start produced solution with objective 76664.5 (0.01s)
User MIP start produced solution with objective 76664.5 (0.01s)
Loaded user MIP start with objective 76664.5

Presolve removed 158 rows and 151 columns
Presolve time: 0.05s
Presolved: 2242 rows, 376 columns, 43202 nonzeros
Variable types: 228 continuous, 148 integer (145 binary)

Root relaxation: objective 7.672880e+04, 637 iterations, 0.04 seconds (0.09 work units)

    Nodes    |    Current Node    |     Objective Bounds      |     Work
 Expl Unexpl |  Obj  Depth IntInf | Incumbent    BestBd   Gap | It/Node Time

     0     0 76728.7974    0    8 76664.4733 76728.7974  0.08%     -    0s
     0     0 76728.7974    0    8 76664.4733 76728.7974  0.08%     -    0s
     0     0 76728.7974    0    2 76664.4733 76728.7974  0.08%     -    0s
H    0     0                    76671.628924 76728.7974  0.07%     -    0s
     0     0 76728.7974    0    2 76671.6289 76728.7974  0.07%     -    0s
     0     2 76728.7974    0    2 76671.6289 76728.7974  0.07%     -    0s
*   24    17               4    76672.406921 76728.7974  0.07%  13.0    0s
*   36    12               5    76674.567174 76728.7974  0.07%  16.1    0s
*   38     3               5    76728.797387 76728.7974  0.00%  15.5    0s

Explored 44 nodes (1900 simplex iterations) in 0.66 seconds (0.88 work units)
Thread count was 8 (of 8 available processors)

Solution count 6: 76728.8 76728.8 76674.6 ... 76664.5

Optimal solution found (tolerance 1.00e-04)
Best objective 7.672879738659e+04, best bound 7.672879738659e+04, gap 0.0000%
